Minimize 
 obj1: x(1) 
Subject To 
 c1: y(0) + y(1) + y(2) + y(3) + y(4) + y(5) + y(6) + y(7) + y(8) + y(9) + 
     y(10) + y(11) + y(12) + y(13) + y(14) + y(15) + y(16) + y(17) + y(18) + y(19) + 
     y(20) = 1 
 c2: x(1) + x(2) - 63.0 y(0) >= - 63.0 
 c3: 0.75 x(1) + 0.25 x(2) - 63.0 y(1) >= -78.75 
 c4: 0.25 x(1) + 0.75 x(2) - 63.0 y(1) >= -48.25 
 c5: 0.75 x(1) + 0.25 x(2) - 63.0 y(2) >= -77.25 
 c6: 0.25 x(1) + 0.75 x(2) - 63.0 y(2) >= -49.75 
 c7: 0.75 x(1) + 0.25 x(2) - 63.0 y(3) >= -75.75 
 c8: 0.25 x(1) + 0.75 x(2) - 63.0 y(3) >= -51.25 
 c9: 0.75 x(1) + 0.25 x(2) - 63.0 y(4) >= -74.25 
 c10: 0.25 x(1) + 0.75 x(2) - 63.0 y(4) >= -52.75 
 c11: 0.75 x(1) + 0.25 x(2) - 63.0 y(5) >= -72.75 
 c12: 0.25 x(1) + 0.75 x(2) - 63.0 y(5) >= -54.25 
 c13: 0.75 x(1) + 0.25 x(2) - 63.0 y(6) >= -71.25 
 c14: 0.25 x(1) + 0.75 x(2) - 63.0 y(6) >= -55.75 
 c15: 0.75 x(1) + 0.25 x(2) - 63.0 y(7) >= -69.75 
 c16: 0.25 x(1) + 0.75 x(2) - 63.0 y(7) >= -57.25 
 c17: 0.75 x(1) + 0.25 x(2) - 63.0 y(8) >= -68.25 
 c18: 0.25 x(1) + 0.75 x(2) - 63.0 y(8) >= -58.75 
 c19: 0.75 x(1) + 0.25 x(2) - 63.0 y(9) >= -66.75 
 c20: 0.25 x(1) + 0.75 x(2) - 63.0 y(9) >= -60.25 
 c21: 0.75 x(1) + 0.25 x(2) - 63.0 y(10) >= -65.25 
 c22: 0.25 x(1) + 0.75 x(2) - 63.0 y(10) >= -61.75 
 c23: 0.75 x(1) + 0.25 x(2) - 63.0 y(11) >= -63.75 
 c24: 0.25 x(1) + 0.75 x(2) - 63.0 y(11) >= -63.25 
 c25: 0.75 x(1) + 0.25 x(2) - 63.0 y(12) >= -62.25 
 c26: 0.25 x(1) + 0.75 x(2) - 63.0 y(12) >= -64.75 
 c27: 0.75 x(1) + 0.25 x(2) - 63.0 y(13) >= -60.75 
 c28: 0.25 x(1) + 0.75 x(2) - 63.0 y(13) >= -66.25 
 c29: 0.75 x(1) + 0.25 x(2) - 63.0 y(14) >= -59.25 
 c30: 0.25 x(1) + 0.75 x(2) - 63.0 y(14) >= -67.75 
 c31: 0.75 x(1) + 0.25 x(2) - 63.0 y(15) >= -57.75 
 c32: 0.25 x(1) + 0.75 x(2) - 63.0 y(15) >= -69.25 
 c33: 0.75 x(1) + 0.25 x(2) - 63.0 y(16) >= -56.25 
 c34: 0.25 x(1) + 0.75 x(2) - 63.0 y(16) >= -70.75 
 c35: 0.75 x(1) + 0.25 x(2) - 63.0 y(17) >= -54.75 
 c36: 0.25 x(1) + 0.75 x(2) - 63.0 y(17) >= -72.25 
 c37: 0.75 x(1) + 0.25 x(2) - 63.0 y(18) >= -53.25 
 c38: 0.25 x(1) + 0.75 x(2) - 63.0 y(18) >= -73.75 
 c39: 0.75 x(1) + 0.25 x(2) - 63.0 y(19) >= -51.75 
 c40: 0.25 x(1) + 0.75 x(2) - 63.0 y(19) >= -75.25 
 c41: 0.75 x(1) + 0.25 x(2) - 63.0 y(20) >= -50.25 
 c42: 0.25 x(1) + 0.75 x(2) - 63.0 y(20) >= -76.75 
 obj2: x(2) = 0 
Bounds 
 -31.5 <= x(1) <= 31.5 
 -31.5 <= x(2) <= 31.5 
Binaries 
 y(0)  y(1)  y(2)  y(3)  y(4)  y(5)  y(6)  y(7)  y(8)  y(9) 
 y(10)  y(11)  y(12)  y(13)  y(14)  y(15)  y(16)  y(17)  y(18)  y(19) 
 y(20) 
End